# 6927
param k := 6;
param n := 60;
param s := 1;
set E :=  (0,52) (1,41) (2,3) (2,19) (2,29) (2,59) (3,17) (3,26) (3,56) (4,34) (4,37) (5,58) (6,19) (7,16) (7,54) (8,13) (8,37) (8,41) (9,31) (10,25) (11,55) (12,28) (12,45) (14,17) (14,20) (15,19) (15,23) (16,53) (17,21) (17,22) (18,29) (19,48) (20,54) (22,38) (24,35) (24,45) (24,59) (25,36) (25,37) (25,51) (25,59) (26,32) (26,42) (27,47) (27,57) (28,30) (28,46) (28,52) (29,34) (31,53) (32,40) (33,46) (34,50) (36,57) (37,55) (39,45) (42,44) (43,49) (45,55) (46,58) (49,54) (50,53);